(set-info :status sat)
(declare-const symbol_10 (_ BitVec 32))
(declare-const symbol_26 (_ BitVec 32))
(declare-const symbol_28 (_ BitVec 32))
(declare-const symbol_29 (_ BitVec 32))
(declare-const symbol_0 (_ BitVec 32))
(declare-const symbol_16 (_ BitVec 32))
(declare-const symbol_3 (_ BitVec 32))
(declare-const symbol_14 (_ BitVec 32))
(declare-const symbol_24 (_ BitVec 32))
(declare-const symbol_6 (_ BitVec 32))
(declare-const symbol_1 (_ BitVec 32))
(declare-const symbol_22 (_ BitVec 32))
(declare-const symbol_21 (_ BitVec 32))
(declare-const symbol_19 (_ BitVec 32))
(declare-const symbol_31 (_ BitVec 32))
(declare-const symbol_12 (_ BitVec 32))
(declare-const symbol_8 (_ BitVec 32))
(assert (not (= symbol_31 (_ bv14 32))))
(assert (not (not (= symbol_31 (_ bv15 32)))))
(assert (not (not (= symbol_29 (_ bv15 32)))))
(assert (not (not (= symbol_28 (_ bv15 32)))))
(assert (not (not (= symbol_26 (_ bv15 32)))))
(assert (not (not (= symbol_24 (_ bv15 32)))))
(assert (not (not (= symbol_22 (_ bv15 32)))))
(assert (not (not (= symbol_21 (_ bv15 32)))))
(assert (not (not (= symbol_19 (_ bv15 32)))))
(assert (not (not (= symbol_16 (_ bv15 32)))))
(assert (not (not (= symbol_14 (_ bv15 32)))))
(assert (not (not (= symbol_12 (_ bv15 32)))))
(assert (not (not (= symbol_10 (_ bv15 32)))))
(assert (not (not (= symbol_8 (_ bv15 32)))))
(assert (not (not (= symbol_6 (_ bv15 32)))))
(assert (not (not (= symbol_3 (_ bv15 32)))))
(assert (not (not (= symbol_1 (_ bv15 32)))))
(assert (not (not (= symbol_0 (_ bv15 32)))))
(check-sat)